inputs/271.in
14
0 1 1 9 12 32 80 100 30 15 8 71 45 57 
1 0 62 91 67 60 92 41 84 100 57 66 24 56 
1 62 0 40 50 85 34 68 25 87 84 71 9 33 
9 91 40 0 41 4 36 4 57 75 63 4 53 47 
12 67 50 41 0 80 34 65 69 60 4 12 12 82 
32 60 85 4 80 0 4 8 69 26 49 9 100 92 
80 92 34 36 34 4 0 46 87 63 30 78 49 61 
100 41 68 4 65 8 46 0 13 79 31 49 77 32 
30 84 25 57 69 69 87 13 0 22 13 60 58 67 
15 100 87 75 60 26 63 79 22 0 55 9 61 3 
8 57 84 63 4 49 30 31 13 55 0 9 49 4 
71 66 71 4 12 9 78 49 60 9 9 0 88 68 
45 24 9 53 12 100 49 77 58 61 49 88 0 60 
57 56 33 47 82 92 61 32 67 3 4 68 60 0 
BBBBRBRRRRBBRR
