output/271.out
7 6 4 8 9 11 14 10 12 5 13 3 1 2 
